NAME: tsp225
TYPE: TOUR
DIMENSION: 225
TOUR_SECTION
30
202
190
225
28
204
55
56
58
59
60
61
71
72
73
91
92
104
220
107
108
109
138
139
140
146
147
154
155
160
161
162
217
219
15
16
29
33
34
35
47
68
69
95
209
103
113
114
153
206
216
49
207
199
224
133
193
218
51
115
223
116
120
175
130
211
192
196
75
76
77
78
80
81
82
83
121
131
212
214
45
48
93
94
96
222
2
57
17
20
203
24
208
62
63
64
65
66
67
70
84
85
90
97
98
99
100
101
102
105
106
111
112
129
136
137
183
141
142
143
144
148
149
152
150
151
156
157
158
213
159
191
1
200
6
7
14
19
31
46
194
74
79
86
87
210
88
89
118
119
134
215
135
163
165
166
177
178
25
189
205
117
187
3
198
4
197
186
173
181
174
180
185
176
179
50
52
53
54
27
188
168
167
128
169
184
182
221
5
8
13
26
32
36
38
39
44
122
126
127
132
201
164
172
11
12
18
23
37
40
41
42
43
110
123
124
145
170
171
195
22
9
10
21
125
EOF